1111100 AB
360 380 400 420 440 460 480 500 520 540 560 580 600 620 640 660 680 700 720 740 760 780 800 820 840 860 880 900 920 940 960 980 1000 1020 1040 1060 1080 1100 1120 1140 1160 1180 1200 1220 1240 1260 1280 1300 1320 1340 1360 1380 1400
1111100 BA
404 425 449 474 494 514 534 554 574 594 614 634 654 674 694 714 734 754 774 794 814 834 854 874 894 914 934 954 974 994 1014 1034 1054 1074 1094 1114 1134 1154 1174 1194 1214 1234 1254 1272 1288 1304 1324 1344 1364 1384 1404 1424 4
0000011 AB
360 407 455 504 548 583 618 653 699 746 792 827 861 896 938 981 1024 1055 1087 1134 1183 1230 1280 1324 1369 1413
0000011 BA
404 453 504 553 597 632 667 702 748 795 841 876 910 945 987 1030 1073 1104 1136 1183 1232 1278 1324 1368 1413 17
